c p1_k1 : 1 \ p1_k2 : 2 \ p1_k3 : 3\
c p2_k1 : 4 \ p2_k2 : 5 \ p2_k3 : 6\
c p3_k1 : 7 \ p3_k2 : 8 \ p3_k3 : 9\
c p4_k1 : 10 \ p4_k2 : 11 \ p4_k3 : 12\

p cnf 12

1 2 3 0
4 5 6 0
7 8 9 0
10 11 12 0
-1 -2 0
-1 -3 0
-2 -3 0
-4 -5 0
-4 -6 0
-5 -6 0
-7 -8 0
-7 -9 0
-8 -9 0
-10 -11 0
-10 -12 0
-11 -12 0

-1 -10 0
-2 -11 0
-3 -12 0

-1 -4 0
-2 -5 0
-3 -6 0

-4 -10 0
-5 -11 0
-6 -12 0

-4 -7 0
-5 -8 0
-6 -9 0